coords = array2d(1..23, 1..2, [288, 124, 780, 787, 416, 716, 988, 345, 406,
    937, 2, 12, 889, 229, 636, 932, 781, 544, 616, 915, 180, 773, 81,
    206, 723, 698, 626, 217, 924, 762, 663, 414, 815, 852, 335, 331,
    554, 730, 170, 194, 167, 795, 967, 745, 768, 334]);

n = 23;

